decision_x1=[0,2];
decision_x2=[0,2];
decision_x3=[0,2];
decision_x4=[0,2];
decision_x5=[0,2];
decision_x6=[0,2];
decision_x7=[0,2];
decision_x8=[0,2];
random_y1=[0,2];
random_y2=[0,2];
constraint_x3_x1=[
0,0,5.2|
0,1,3.2|
0,2,9.4|
1,0,4.1|
1,1,9.2|
1,2,0.86|
2,0,2.2|
2,1,7.1|
2,2,4.5|
];
constraint_x3_x2=[
0,0,4.1|
0,1,0.52|
0,2,2.3|
1,0,5.9|
1,1,2.4|
1,2,1.3|
2,0,5|
2,1,4|
2,2,3.2|
];
constraint_x4_x1=[
0,0,8.5|
0,1,0.54|
0,2,1.1|
1,0,3.6|
1,1,4|
1,2,4.3|
2,0,1.8|
2,1,0.3|
2,2,8.6|
];
constraint_x4_x3=[
0,0,2.7|
0,1,3.9|
0,2,2.7|
1,0,0.21|
1,1,8.5|
1,2,0.2|
2,0,2.6|
2,1,7.7|
2,2,4.2|
];
constraint_x5_x4=[
0,0,3.7|
0,1,7.6|
0,2,4.5|
1,0,5.4|
1,1,8.8|
1,2,0.84|
2,0,0.96|
2,1,10|
2,2,8.3|
];
constraint_x7_x1=[
0,0,1.9|
0,1,8.7|
0,2,8.1|
1,0,5.5|
1,1,4.4|
1,2,8.5|
2,0,3.4|
2,1,4|
2,2,6.7|
];
constraint_x7_x4=[
0,0,9.8|
0,1,5.2|
0,2,5.5|
1,0,2.9|
1,1,9.8|
1,2,7.7|
2,0,3|
2,1,4.2|
2,2,3.2|
];
constraint_x7_x5=[
0,0,8.3|
0,1,7.8|
0,2,9.6|
1,0,6.7|
1,1,9.7|
1,2,5.9|
2,0,9.3|
2,1,0.16|
2,2,0.13|
];
constraint_x7_x6=[
0,0,0.8|
0,1,7|
0,2,3.3|
1,0,3.6|
1,1,3.6|
1,2,3|
2,0,7.2|
2,1,6.2|
2,2,4.3|
];
constraint_x8_x1=[
0,0,5.2|
0,1,5.7|
0,2,9.2|
1,0,7.3|
1,1,1.2|
1,2,8.3|
2,0,5.2|
2,1,7.8|
2,2,9.7|
];
constraint_x8_x2=[
0,0,3.7|
0,1,5|
0,2,6|
1,0,9.2|
1,1,8.2|
1,2,0.19|
2,0,1|
2,1,8.7|
2,2,7.7|
];
constraint_x8_x5=[
0,0,3.9|
0,1,1.7|
0,2,4.9|
1,0,8.8|
1,1,5|
1,2,2.8|
2,0,4.9|
2,1,6.4|
2,2,9.6|
];
constraint_x8_x6=[
0,0,4.5|
0,1,4|
0,2,9.9|
1,0,8.5|
1,1,8.6|
1,2,4.1|
2,0,0.58|
2,1,4|
2,2,6.3|
];
constraint_x8_x7=[
0,0,2.9|
0,1,3|
0,2,2.9|
1,0,9.6|
1,1,2.5|
1,2,9|
2,0,1.8|
2,1,2.7|
2,2,4.7|
];
constraint_x1_y1=[
0,0,6.1|
0,1,0.14|
0,2,3.6|
1,0,6|
1,1,2.5|
1,2,7.5|
2,0,4.1|
2,1,7.9|
2,2,5.8|
];
constraint_x2_y2=[
0,0,3.5|
0,1,1.8|
0,2,7.3|
1,0,8.1|
1,1,1.5|
1,2,5.1|
2,0,3.2|
2,1,1.4|
2,2,7.6|
];
initial_distribution_y1=[0.39,0.54,0.073];
initial_distribution_y2=[0.28,0.39,0.34];
transition_y1=[
0.017,0.49,0.49|
0.51,0.09,0.4|
0.3,0.35,0.35|
];
transition_y2=[
0.52,0.32,0.16|
0.26,0.32,0.42|
0.52,0.041,0.43|
];
